GLPSOL--GLPK LP/MIP Solver 5.0
Parameter(s) specified in the command line:
 --lp ../modeles/2_119.lp --log 2_119.log
Reading problem data from '../modeles/2_119.lp'...
247 rows, 480 columns, 1676 non-zeros
238 integer variables, all of which are binary
735 lines were read
GLPK Integer Optimizer 5.0
247 rows, 480 columns, 1676 non-zeros
238 integer variables, all of which are binary
Preprocessing...
236 constraint coefficient(s) were reduced
247 rows, 478 columns, 1674 non-zeros
238 integer variables, all of which are binary
Scaling...
 A: min|aij| =  2.825e-04  max|aij| =  4.000e+00  ratio =  1.416e+04
GM: min|aij| =  9.167e-02  max|aij| =  1.091e+01  ratio =  1.190e+02
EQ: min|aij| =  8.403e-03  max|aij| =  1.000e+00  ratio =  1.190e+02
2N: min|aij| =  7.812e-03  max|aij| =  1.710e+00  ratio =  2.189e+02
Constructing initial basis...
Size of triangular part is 247
Solving LP relaxation...
GLPK Simplex Optimizer 5.0
247 rows, 478 columns, 1674 non-zeros
      0: obj =   4.000000000e+00 inf =   9.500e+00 (5)
     21: obj =   4.997528249e-01 inf =   0.000e+00 (0)
*    92: obj =  -1.413815526e+00 inf =   1.396e-16 (0)
OPTIMAL LP SOLUTION FOUND
Integer optimization begins...
Long-step dual simplex will be used
+    92: mip =     not found yet >=              -inf        (1; 0)
+    93: >>>>>  -1.413815526e+00 >=  -1.413815526e+00 < 0.1% (2; 0)
+    93: mip =  -1.413815526e+00 >=     tree is empty   0.0% (0; 3)
INTEGER OPTIMAL SOLUTION FOUND
Time used:   0.0 secs
Memory used: 0.7 Mb (739848 bytes)
